HFSDDW
15	12	4
0	85	1	29	2	61	3	54
0	13	1	48	2	64	3	99
0	53	1	83	2	28	3	94
0	31	1	26	2	91	3	27
0	96	1	83	2	78	3	47
0	38	1	43	2	20	3	13
0	84	1	8	2	83	3	99
0	52	1	85	2	25	3	24
0	13	1	55	2	76	3	22
0	80	1	22	2	43	3	18
0	90	1	85	2	44	3	98
0	27	1	67	2	22	3	5
0	74	1	38	2	69	3	37
0	90	1	93	2	7	3	43
0	10	1	48	2	69	3	5
LBCmax: 379
RELDUE
-1	314	5	9
-1	315	2	8
-1	302	2	8
-1	317	8	3
-1	309	2	2
-1	268	8	3
-1	327	2	5
-1	323	3	2
-1	303	3	5
-1	318	4	5
-1	300	3	4
-1	322	7	4
-1	296	2	8
-1	311	5	5
-1	308	1	9
DDW
283	345
284	346
293	311
304	330
290	328
255	281
298	356
300	346
285	321
312	324
273	327
306	338
284	308
292	330
286	330
